! wB97x-D3 cc-pvdz engrad 

%tddft
 nroots 10
 tda TRUE
 IRoot 1
 followiroot true
end

*xyz 0 1
 C     0.566775    -0.108103     0.741936
 C     0.483772     1.059655    -0.261848
 C    -0.682862     1.127775    -1.138099
 C    -0.768773     2.350371    -2.016056
 C    -1.473304     0.009609    -1.231372
 O    -2.572173    -0.117819    -2.007015
 C    -1.203359    -1.247367    -0.550821
 H    -1.829602    -2.104325    -0.792818
 C    -0.192291    -1.337906     0.322737
 O     0.114925    -2.480020     0.962006
 C    -0.004671     0.412973     2.065427
 H     0.586300     1.282614     2.382579
 H     0.042104    -0.366735     2.838736
 H    -1.051949     0.714788     1.927634
 O     1.355932     1.912865    -0.208552
 O     1.930018    -0.441584     1.027736
 H     0.166790     2.910413    -1.893757
 H    -1.594493     3.026855    -1.749311
 H    -0.869817     2.083586    -3.078361
 C    -3.425045     0.992081    -2.242163
 H    -4.410916     0.565271    -2.466287
 H    -3.095501     1.599076    -3.096654
 H    -3.499185     1.625573    -1.345012
 H     0.948164    -2.331052     1.432741
 C     2.714942    -0.701851    -0.062534
 O     2.254976    -0.907764    -1.153982
 C     4.174902    -0.657203     0.319962
 H     4.263073    -1.178266     1.289793
 C     4.552272     0.816529     0.536163
 C     5.027649    -1.371479    -0.729405
 H     4.619274    -2.383554    -0.885192
 C     6.502312    -1.464659    -0.352134
 H     4.907571    -0.852083    -1.693984
 H     6.637858    -1.968676     0.619032
 H     6.973190    -0.472732    -0.278133
 H     7.063087    -2.037791    -1.104789
 H     3.862888     1.292678     1.245564
 H     4.487167     1.373154    -0.411052
 H     5.575368     0.904053     0.927651
*
%pal nprocs 2 end
