! opt def2-svp b3lyp

* xyz 0 1 
H 0 0 0.5
O 0 0 0 
H 0 0 -0.5
*
%pal nprocs 6 end
