! engrad CAM-B3LYP cc-pvdz 
! NoAutostart


%moinp "tmp.gbw" 
%scf guess moread end
%tddft nroots 10 iroot 1 tda TRUE end
* xyz 0 1
C      -0.996378986507248      3.313883895363544     -0.050663796482191
C      -0.848861712308884      1.917410646997111     -0.091318893640195
C       0.165652343198674      1.032173442019721     -0.006764951296033
C       1.545604830081986      1.466235619693269      0.008242259288444
C       2.052635619091870      2.759853879356113      0.062075370115093
C       1.440572549053067      4.033545629503005      0.376973118556305
C       3.494015363320662      2.633166961249503     -0.018075344684650
C       3.786562665569289      1.255382939335911     -0.093006549827172
C       5.111377292204162      0.821540803893445     -0.143426160304525
C       4.567516945613101      3.532181233819845     -0.024452347366819
C       5.843332499275284      2.998438703428485     -0.101857827876597
N       6.120838760882215      1.681362886239270     -0.150037729507635
N       2.593506352630379      0.572499730481470     -0.083425837038812
H       1.309018162425826      4.664192714917957     -0.532001805296843
H      -1.086641817861689      3.739232639788797     -1.073763752241292
H      -1.892216929343477      1.532872863941168     -0.099973593784062
H      -0.049385499220384     -0.035154249358052      0.028029275710097
H       5.362260340785625     -0.244379484657599     -0.168490523711366
H       4.419368210955430      4.611298427893569      0.025058736509634
H       6.710254351985999      3.664345773576610     -0.120660772297837
H       2.482479885258996     -0.423188021762777     -0.209144814907864
*

%pal nprocs 64 end
