! engrad CAM-B3LYP cc-pvdz 
! NoAutostart


%moinp "tmp.gbw" 
%scf guess moread end
%tddft nroots 10 iroot 2 tda TRUE end
* xyz 0 1
O      -1.562154312287645      4.379741983614326      0.021436475002955
H      -0.624819530918851      4.403557786619329     -0.009020427613386
H      -1.911353971224385      3.847727848650764      0.711218047992497
*

%pal nprocs 4 end
